NAME           C:\Bruker\Hvattum\knapsack\Problems\class1\100-5-10.mps
ROWS
 N  OBJ
 L  CONSTR1
 L  CONSTR2
 L  CONSTR3
 L  CONSTR4
 L  CONSTR5
COLUMNS
    INT0001   'MARKER'  'INTORG'
    X1        OBJ       720
    X1        CONSTR1   921
    X1        CONSTR2   944
    X1        CONSTR3   656
    X1        CONSTR4   242
    X1        CONSTR5   564
    X2        OBJ       569
    X2        CONSTR1   367
    X2        CONSTR2   169
    X2        CONSTR3   916
    X2        CONSTR4   469
    X2        CONSTR5   825
    X3        OBJ       832
    X3        CONSTR1   638
    X3        CONSTR2   797
    X3        CONSTR3   799
    X3        CONSTR4   604
    X3        CONSTR5   488
    X4        OBJ       746
    X4        CONSTR1   810
    X4        CONSTR2   999
    X4        CONSTR3   634
    X4        CONSTR4   820
    X4        CONSTR5   360
    X5        OBJ       601
    X5        CONSTR1   166
    X5        CONSTR2   198
    X5        CONSTR3   482
    X5        CONSTR4   655
    X5        CONSTR5   435
    X6        OBJ       863
    X6        CONSTR1   650
    X6        CONSTR2   453
    X6        CONSTR3   376
    X6        CONSTR4   944
    X6        CONSTR5   838
    X7        OBJ       596
    X7        CONSTR1   365
    X7        CONSTR2   743
    X7        CONSTR3   157
    X7        CONSTR4   841
    X7        CONSTR5   316
    X8        OBJ       1013
    X8        CONSTR1   974
    X8        CONSTR2   441
    X8        CONSTR3   610
    X8        CONSTR4   369
    X8        CONSTR5   292
    X9        OBJ       736
    X9        CONSTR1   685
    X9        CONSTR2   954
    X9        CONSTR3   265
    X9        CONSTR4   806
    X9        CONSTR5   642
    X10       OBJ       737
    X10       CONSTR1   545
    X10       CONSTR2   66
    X10       CONSTR3   440
    X10       CONSTR4   715
    X10       CONSTR5   344
    X11       OBJ       1062
    X11       CONSTR1   962
    X11       CONSTR2   193
    X11       CONSTR3   925
    X11       CONSTR4   460
    X11       CONSTR5   321
    X12       OBJ       381
    X12       CONSTR1   439
    X12       CONSTR2   66
    X12       CONSTR3   166
    X12       CONSTR4   25
    X12       CONSTR5   662
    X13       OBJ       1044
    X13       CONSTR1   12
    X13       CONSTR2   963
    X13       CONSTR3   551
    X13       CONSTR4   407
    X13       CONSTR5   861
    X14       OBJ       605
    X14       CONSTR1   618
    X14       CONSTR2   1
    X14       CONSTR3   669
    X14       CONSTR4   111
    X14       CONSTR5   567
    X15       OBJ       970
    X15       CONSTR1   255
    X15       CONSTR2   201
    X15       CONSTR3   932
    X15       CONSTR4   881
    X15       CONSTR5   320
    X16       OBJ       1177
    X16       CONSTR1   835
    X16       CONSTR2   425
    X16       CONSTR3   950
    X16       CONSTR4   653
    X16       CONSTR5   533
    X17       OBJ       747
    X17       CONSTR1   790
    X17       CONSTR2   607
    X17       CONSTR3   906
    X17       CONSTR4   885
    X17       CONSTR5   463
    X18       OBJ       842
    X18       CONSTR1   963
    X18       CONSTR2   211
    X18       CONSTR3   653
    X18       CONSTR4   345
    X18       CONSTR5   646
    X19       OBJ       875
    X19       CONSTR1   111
    X19       CONSTR2   390
    X19       CONSTR3   113
    X19       CONSTR4   631
    X19       CONSTR5   659
    X20       OBJ       627
    X20       CONSTR1   200
    X20       CONSTR2   402
    X20       CONSTR3   63
    X20       CONSTR4   395
    X20       CONSTR5   820
    X21       OBJ       839
    X21       CONSTR1   999
    X21       CONSTR2   971
    X21       CONSTR3   2
    X21       CONSTR4   431
    X21       CONSTR5   458
    X22       OBJ       674
    X22       CONSTR1   117
    X22       CONSTR2   258
    X22       CONSTR3   900
    X22       CONSTR4   369
    X22       CONSTR5   799
    X23       OBJ       897
    X23       CONSTR1   615
    X23       CONSTR2   240
    X23       CONSTR3   573
    X23       CONSTR4   31
    X23       CONSTR5   566
    X24       OBJ       876
    X24       CONSTR1   718
    X24       CONSTR2   620
    X24       CONSTR3   454
    X24       CONSTR4   889
    X24       CONSTR5   837
    X25       OBJ       597
    X25       CONSTR1   297
    X25       CONSTR2   163
    X25       CONSTR3   324
    X25       CONSTR4   936
    X25       CONSTR5   840
    X26       OBJ       649
    X26       CONSTR1   399
    X26       CONSTR2   17
    X26       CONSTR3   232
    X26       CONSTR4   855
    X26       CONSTR5   980
    X27       OBJ       1087
    X27       CONSTR1   998
    X27       CONSTR2   849
    X27       CONSTR3   456
    X27       CONSTR4   826
    X27       CONSTR5   607
    X28       OBJ       752
    X28       CONSTR1   579
    X28       CONSTR2   310
    X28       CONSTR3   718
    X28       CONSTR4   306
    X28       CONSTR5   281
    X29       OBJ       525
    X29       CONSTR1   337
    X29       CONSTR2   437
    X29       CONSTR3   409
    X29       CONSTR4   526
    X29       CONSTR5   732
    X30       OBJ       754
    X30       CONSTR1   977
    X30       CONSTR2   397
    X30       CONSTR3   512
    X30       CONSTR4   102
    X30       CONSTR5   634
    X31       OBJ       692
    X31       CONSTR1   828
    X31       CONSTR2   31
    X31       CONSTR3   242
    X31       CONSTR4   284
    X31       CONSTR5   628
    X32       OBJ       835
    X32       CONSTR1   332
    X32       CONSTR2   277
    X32       CONSTR3   259
    X32       CONSTR4   931
    X32       CONSTR5   833
    X33       OBJ       436
    X33       CONSTR1   769
    X33       CONSTR2   349
    X33       CONSTR3   30
    X33       CONSTR4   402
    X33       CONSTR5   359
    X34       OBJ       1183
    X34       CONSTR1   743
    X34       CONSTR2   632
    X34       CONSTR3   618
    X34       CONSTR4   733
    X34       CONSTR5   758
    X35       OBJ       369
    X35       CONSTR1   595
    X35       CONSTR2   447
    X35       CONSTR3   92
    X35       CONSTR4   410
    X35       CONSTR5   288
    X36       OBJ       940
    X36       CONSTR1   452
    X36       CONSTR2   831
    X36       CONSTR3   844
    X36       CONSTR4   493
    X36       CONSTR5   953
    X37       OBJ       654
    X37       CONSTR1   12
    X37       CONSTR2   528
    X37       CONSTR3   418
    X37       CONSTR4   916
    X37       CONSTR5   68
    X38       OBJ       1090
    X38       CONSTR1   577
    X38       CONSTR2   978
    X38       CONSTR3   671
    X38       CONSTR4   562
    X38       CONSTR5   364
    X39       OBJ       780
    X39       CONSTR1   128
    X39       CONSTR2   272
    X39       CONSTR3   354
    X39       CONSTR4   820
    X39       CONSTR5   29
    X40       OBJ       1045
    X40       CONSTR1   535
    X40       CONSTR2   732
    X40       CONSTR3   42
    X40       CONSTR4   856
    X40       CONSTR5   977
    X41       OBJ       578
    X41       CONSTR1   60
    X41       CONSTR2   882
    X41       CONSTR3   297
    X41       CONSTR4   140
    X41       CONSTR5   443
    X42       OBJ       896
    X42       CONSTR1   973
    X42       CONSTR2   430
    X42       CONSTR3   503
    X42       CONSTR4   541
    X42       CONSTR5   868
    X43       OBJ       1008
    X43       CONSTR1   808
    X43       CONSTR2   525
    X43       CONSTR3   906
    X43       CONSTR4   675
    X43       CONSTR5   905
    X44       OBJ       798
    X44       CONSTR1   763
    X44       CONSTR2   570
    X44       CONSTR3   596
    X44       CONSTR4   388
    X44       CONSTR5   315
    X45       OBJ       734
    X45       CONSTR1   915
    X45       CONSTR2   62
    X45       CONSTR3   459
    X45       CONSTR4   544
    X45       CONSTR5   350
    X46       OBJ       987
    X46       CONSTR1   492
    X46       CONSTR2   285
    X46       CONSTR3   667
    X46       CONSTR4   406
    X46       CONSTR5   851
    X47       OBJ       694
    X47       CONSTR1   578
    X47       CONSTR2   40
    X47       CONSTR3   689
    X47       CONSTR4   609
    X47       CONSTR5   633
    X48       OBJ       565
    X48       CONSTR1   699
    X48       CONSTR2   437
    X48       CONSTR3   662
    X48       CONSTR4   599
    X48       CONSTR5   412
    X49       OBJ       809
    X49       CONSTR1   171
    X49       CONSTR2   337
    X49       CONSTR3   388
    X49       CONSTR4   353
    X49       CONSTR5   781
    X50       OBJ       818
    X50       CONSTR1   796
    X50       CONSTR2   421
    X50       CONSTR3   767
    X50       CONSTR4   542
    X50       CONSTR5   362
    X51       OBJ       972
    X51       CONSTR1   393
    X51       CONSTR2   71
    X51       CONSTR3   889
    X51       CONSTR4   611
    X51       CONSTR5   854
    X52       OBJ       887
    X52       CONSTR1   562
    X52       CONSTR2   344
    X52       CONSTR3   437
    X52       CONSTR4   597
    X52       CONSTR5   179
    X53       OBJ       614
    X53       CONSTR1   798
    X53       CONSTR2   261
    X53       CONSTR3   929
    X53       CONSTR4   116
    X53       CONSTR5   201
    X54       OBJ       930
    X54       CONSTR1   515
    X54       CONSTR2   791
    X54       CONSTR3   227
    X54       CONSTR4   926
    X54       CONSTR5   433
    X55       OBJ       694
    X55       CONSTR1   22
    X55       CONSTR2   232
    X55       CONSTR3   476
    X55       CONSTR4   984
    X55       CONSTR5   633
    X56       OBJ       872
    X56       CONSTR1   282
    X56       CONSTR2   990
    X56       CONSTR3   331
    X56       CONSTR4   114
    X56       CONSTR5   571
    X57       OBJ       712
    X57       CONSTR1   549
    X57       CONSTR2   102
    X57       CONSTR3   127
    X57       CONSTR4   361
    X57       CONSTR5   43
    X58       OBJ       500
    X58       CONSTR1   430
    X58       CONSTR2   91
    X58       CONSTR3   774
    X58       CONSTR4   362
    X58       CONSTR5   578
    X59       OBJ       739
    X59       CONSTR1   639
    X59       CONSTR2   811
    X59       CONSTR3   959
    X59       CONSTR4   678
    X59       CONSTR5   359
    X60       OBJ       831
    X60       CONSTR1   802
    X60       CONSTR2   119
    X60       CONSTR3   915
    X60       CONSTR4   121
    X60       CONSTR5   376
    X61       OBJ       522
    X61       CONSTR1   145
    X61       CONSTR2   335
    X61       CONSTR3   876
    X61       CONSTR4   893
    X61       CONSTR5   258
    X62       OBJ       1008
    X62       CONSTR1   348
    X62       CONSTR2   388
    X62       CONSTR3   258
    X62       CONSTR4   930
    X62       CONSTR5   885
    X63       OBJ       834
    X63       CONSTR1   865
    X63       CONSTR2   140
    X63       CONSTR3   928
    X63       CONSTR4   49
    X63       CONSTR5   221
    X64       OBJ       734
    X64       CONSTR1   377
    X64       CONSTR2   676
    X64       CONSTR3   459
    X64       CONSTR4   363
    X64       CONSTR5   698
    X65       OBJ       490
    X65       CONSTR1   658
    X65       CONSTR2   58
    X65       CONSTR3   402
    X65       CONSTR4   344
    X65       CONSTR5   46
    X66       OBJ       924
    X66       CONSTR1   663
    X66       CONSTR2   387
    X66       CONSTR3   494
    X66       CONSTR4   726
    X66       CONSTR5   935
    X67       OBJ       422
    X67       CONSTR1   95
    X67       CONSTR2   893
    X67       CONSTR3   358
    X67       CONSTR4   386
    X67       CONSTR5   331
    X68       OBJ       598
    X68       CONSTR1   341
    X68       CONSTR2   697
    X68       CONSTR3   260
    X68       CONSTR4   30
    X68       CONSTR5   485
    X69       OBJ       499
    X69       CONSTR1   3
    X69       CONSTR2   665
    X69       CONSTR3   127
    X69       CONSTR4   782
    X69       CONSTR5   752
    X70       OBJ       846
    X70       CONSTR1   508
    X70       CONSTR2   500
    X70       CONSTR3   733
    X70       CONSTR4   479
    X70       CONSTR5   593
    X71       OBJ       939
    X71       CONSTR1   912
    X71       CONSTR2   790
    X71       CONSTR3   362
    X71       CONSTR4   65
    X71       CONSTR5   312
    X72       OBJ       797
    X72       CONSTR1   786
    X72       CONSTR2   836
    X72       CONSTR3   851
    X72       CONSTR4   346
    X72       CONSTR5   573
    X73       OBJ       538
    X73       CONSTR1   946
    X73       CONSTR2   247
    X73       CONSTR3   774
    X73       CONSTR4   150
    X73       CONSTR5   46
    X74       OBJ       656
    X74       CONSTR1   62
    X74       CONSTR2   523
    X74       CONSTR3   457
    X74       CONSTR4   630
    X74       CONSTR5   329
    X75       OBJ       931
    X75       CONSTR1   593
    X75       CONSTR2   860
    X75       CONSTR3   113
    X75       CONSTR4   947
    X75       CONSTR5   641
    X76       OBJ       861
    X76       CONSTR1   619
    X76       CONSTR2   922
    X76       CONSTR3   741
    X76       CONSTR4   29
    X76       CONSTR5   938
    X77       OBJ       784
    X77       CONSTR1   432
    X77       CONSTR2   805
    X77       CONSTR3   179
    X77       CONSTR4   396
    X77       CONSTR5   448
    X78       OBJ       586
    X78       CONSTR1   510
    X78       CONSTR2   660
    X78       CONSTR3   944
    X78       CONSTR4   342
    X78       CONSTR5   163
    X79       OBJ       859
    X79       CONSTR1   648
    X79       CONSTR2   930
    X79       CONSTR3   238
    X79       CONSTR4   665
    X79       CONSTR5   857
    X80       OBJ       620
    X80       CONSTR1   378
    X80       CONSTR2   756
    X80       CONSTR3   516
    X80       CONSTR4   602
    X80       CONSTR5   135
    X81       OBJ       1055
    X81       CONSTR1   989
    X81       CONSTR2   686
    X81       CONSTR3   624
    X81       CONSTR4   543
    X81       CONSTR5   475
    X82       OBJ       645
    X82       CONSTR1   689
    X82       CONSTR2   149
    X82       CONSTR3   530
    X82       CONSTR4   648
    X82       CONSTR5   278
    X83       OBJ       857
    X83       CONSTR1   20
    X83       CONSTR2   369
    X83       CONSTR3   569
    X83       CONSTR4   662
    X83       CONSTR5   790
    X84       OBJ       623
    X84       CONSTR1   936
    X84       CONSTR2   556
    X84       CONSTR3   140
    X84       CONSTR4   939
    X84       CONSTR5   481
    X85       OBJ       797
    X85       CONSTR1   537
    X85       CONSTR2   938
    X85       CONSTR3   434
    X85       CONSTR4   865
    X85       CONSTR5   248
    X86       OBJ       643
    X86       CONSTR1   823
    X86       CONSTR2   285
    X86       CONSTR3   32
    X86       CONSTR4   842
    X86       CONSTR5   871
    X87       OBJ       566
    X87       CONSTR1   117
    X87       CONSTR2   640
    X87       CONSTR3   626
    X87       CONSTR4   47
    X87       CONSTR5   73
    X88       OBJ       811
    X88       CONSTR1   971
    X88       CONSTR2   538
    X88       CONSTR3   373
    X88       CONSTR4   739
    X88       CONSTR5   946
    X89       OBJ       819
    X89       CONSTR1   178
    X89       CONSTR2   915
    X89       CONSTR3   275
    X89       CONSTR4   962
    X89       CONSTR5   44
    X90       OBJ       688
    X90       CONSTR1   111
    X90       CONSTR2   433
    X90       CONSTR3   908
    X90       CONSTR4   911
    X90       CONSTR5   581
    X91       OBJ       922
    X91       CONSTR1   607
    X91       CONSTR2   981
    X91       CONSTR3   108
    X91       CONSTR4   544
    X91       CONSTR5   156
    X92       OBJ       1142
    X92       CONSTR1   698
    X92       CONSTR2   684
    X92       CONSTR3   614
    X92       CONSTR4   914
    X92       CONSTR5   628
    X93       OBJ       902
    X93       CONSTR1   865
    X93       CONSTR2   681
    X93       CONSTR3   902
    X93       CONSTR4   331
    X93       CONSTR5   262
    X94       OBJ       795
    X94       CONSTR1   469
    X94       CONSTR2   506
    X94       CONSTR3   743
    X94       CONSTR4   820
    X94       CONSTR5   769
    X95       OBJ       744
    X95       CONSTR1   622
    X95       CONSTR2   831
    X95       CONSTR3   50
    X95       CONSTR4   762
    X95       CONSTR5   874
    X96       OBJ       754
    X96       CONSTR1   497
    X96       CONSTR2   25
    X96       CONSTR3   933
    X96       CONSTR4   351
    X96       CONSTR5   468
    X97       OBJ       453
    X97       CONSTR1   459
    X97       CONSTR2   686
    X97       CONSTR3   173
    X97       CONSTR4   507
    X97       CONSTR5   290
    X98       OBJ       427
    X98       CONSTR1   318
    X98       CONSTR2   264
    X98       CONSTR3   927
    X98       CONSTR4   296
    X98       CONSTR5   275
    X99       OBJ       839
    X99       CONSTR1   816
    X99       CONSTR2   985
    X99       CONSTR3   643
    X99       CONSTR4   118
    X99       CONSTR5   71
    X100      OBJ       928
    X100      CONSTR1   581
    X100      CONSTR2   397
    X100      CONSTR3   977
    X100      CONSTR4   119
    X100      CONSTR5   924
    INT0001   'MARKER'  'INTEND'
RHS
    RHS10001  CONSTR1   13688
    RHS10001  CONSTR2   12495
    RHS10001  CONSTR3   13016
    RHS10001  CONSTR4   13419
    RHS10001  CONSTR5   13061
BOUNDS
 BV BND       X1        .00
 BV BND       X2        .00
 BV BND       X3        .00
 BV BND       X4        .00
 BV BND       X5        .00
 BV BND       X6        .00
 BV BND       X7        .00
 BV BND       X8        .00
 BV BND       X9        .00
 BV BND       X10       .00
 BV BND       X11       .00
 BV BND       X12       .00
 BV BND       X13       .00
 BV BND       X14       .00
 BV BND       X15       .00
 BV BND       X16       .00
 BV BND       X17       .00
 BV BND       X18       .00
 BV BND       X19       .00
 BV BND       X20       .00
 BV BND       X21       .00
 BV BND       X22       .00
 BV BND       X23       .00
 BV BND       X24       .00
 BV BND       X25       .00
 BV BND       X26       .00
 BV BND       X27       .00
 BV BND       X28       .00
 BV BND       X29       .00
 BV BND       X30       .00
 BV BND       X31       .00
 BV BND       X32       .00
 BV BND       X33       .00
 BV BND       X34       .00
 BV BND       X35       .00
 BV BND       X36       .00
 BV BND       X37       .00
 BV BND       X38       .00
 BV BND       X39       .00
 BV BND       X40       .00
 BV BND       X41       .00
 BV BND       X42       .00
 BV BND       X43       .00
 BV BND       X44       .00
 BV BND       X45       .00
 BV BND       X46       .00
 BV BND       X47       .00
 BV BND       X48       .00
 BV BND       X49       .00
 BV BND       X50       .00
 BV BND       X51       .00
 BV BND       X52       .00
 BV BND       X53       .00
 BV BND       X54       .00
 BV BND       X55       .00
 BV BND       X56       .00
 BV BND       X57       .00
 BV BND       X58       .00
 BV BND       X59       .00
 BV BND       X60       .00
 BV BND       X61       .00
 BV BND       X62       .00
 BV BND       X63       .00
 BV BND       X64       .00
 BV BND       X65       .00
 BV BND       X66       .00
 BV BND       X67       .00
 BV BND       X68       .00
 BV BND       X69       .00
 BV BND       X70       .00
 BV BND       X71       .00
 BV BND       X72       .00
 BV BND       X73       .00
 BV BND       X74       .00
 BV BND       X75       .00
 BV BND       X76       .00
 BV BND       X77       .00
 BV BND       X78       .00
 BV BND       X79       .00
 BV BND       X80       .00
 BV BND       X81       .00
 BV BND       X82       .00
 BV BND       X83       .00
 BV BND       X84       .00
 BV BND       X85       .00
 BV BND       X86       .00
 BV BND       X87       .00
 BV BND       X88       .00
 BV BND       X89       .00
 BV BND       X90       .00
 BV BND       X91       .00
 BV BND       X92       .00
 BV BND       X93       .00
 BV BND       X94       .00
 BV BND       X95       .00
 BV BND       X96       .00
 BV BND       X97       .00
 BV BND       X98       .00
 BV BND       X99       .00
 BV BND       X100      .00
ENDATA
